Using license file /home/shashwat/gurobi.lic
Academic license - for non-commercial use only - expires 2021-02-02

Total Samples: 26400
Model size: 3680



Gurobi Optimizer version 9.1.0 build v9.1.0rc0 (linux64)
Thread count: 4 physical cores, 8 logical processors, using up to 8 threads
Optimize a model with 1898 rows, 3306 columns and 6784 nonzeros
Model fingerprint: 0x6574d609
Variable types: 0 continuous, 3306 integer (0 binary)
Coefficient statistics:
  Matrix range     [1e+00, 1e+09]
  Objective range  [2e+02, 3e+05]
  Bounds range     [1e+00, 1e+04]
  RHS range        [3e+01, 1e+04]
Warning: Model contains large matrix coefficients
         Consider reformulating model or setting NumericFocus parameter
         to avoid numerical issues.
Found heuristic solution: objective 8.491320e+07
Presolve removed 172 rows and 0 columns
Presolve time: 0.06s
Presolved: 1726 rows, 3306 columns, 6526 nonzeros
Variable types: 0 continuous, 3306 integer (1524 binary)

Root relaxation: objective 5.862719e+07, 460 iterations, 0.01 seconds

    Nodes    |    Current Node    |     Objective Bounds      |     Work
 Expl Unexpl |  Obj  Depth IntInf | Incumbent    BestBd   Gap | It/Node Time

     0     0 5.8627e+07    0   24 8.4913e+07 5.8627e+07  31.0%     -    0s
H    0     0                    6.038680e+07 5.8627e+07  2.91%     -    0s
H    0     0                    6.035924e+07 5.8627e+07  2.87%     -    0s
H    0     0                    6.015420e+07 5.8627e+07  2.54%     -    0s
     0     0 5.8750e+07    0  104 6.0154e+07 5.8750e+07  2.33%     -    0s
H    0     0                    5.998549e+07 5.8750e+07  2.06%     -    0s
H    0     0                    5.996904e+07 5.8750e+07  2.03%     -    0s
     0     0 5.8779e+07    0  107 5.9969e+07 5.8779e+07  1.98%     -    0s
     0     0 5.8779e+07    0  104 5.9969e+07 5.8779e+07  1.98%     -    0s
H    0     0                    5.996400e+07 5.8779e+07  1.98%     -    0s
H    0     0                    5.989180e+07 5.8779e+07  1.86%     -    0s
H    0     0                    5.977200e+07 5.8779e+07  1.66%     -    0s
H    0     0                    5.973194e+07 5.8779e+07  1.59%     -    0s
     0     0 5.8908e+07    0  112 5.9732e+07 5.8908e+07  1.38%     -    0s
     0     0 5.8952e+07    0  130 5.9732e+07 5.8952e+07  1.31%     -    0s
H    0     0                    5.967211e+07 5.8952e+07  1.21%     -    0s
     0     0 5.8953e+07    0  134 5.9672e+07 5.8953e+07  1.21%     -    0s
     0     0 5.9008e+07    0  138 5.9672e+07 5.9008e+07  1.11%     -    0s
H    0     0                    5.962832e+07 5.9008e+07  1.04%     -    0s
H    0     0                    5.962827e+07 5.9008e+07  1.04%     -    0s
     0     0 5.9011e+07    0  169 5.9628e+07 5.9011e+07  1.03%     -    0s
     0     0 5.9011e+07    0  177 5.9628e+07 5.9011e+07  1.03%     -    0s
H    0     0                    5.962715e+07 5.9011e+07  1.03%     -    0s
     0     0 5.9036e+07    0  167 5.9627e+07 5.9036e+07  0.99%     -    0s
     0     0 5.9039e+07    0  162 5.9627e+07 5.9039e+07  0.99%     -    0s
     0     0 5.9039e+07    0  189 5.9627e+07 5.9039e+07  0.99%     -    0s
H    0     0                    5.956911e+07 5.9039e+07  0.89%     -    0s
     0     0 5.9046e+07    0  196 5.9569e+07 5.9046e+07  0.88%     -    0s
     0     0 5.9048e+07    0  189 5.9569e+07 5.9048e+07  0.88%     -    0s
     0     0 5.9048e+07    0  178 5.9569e+07 5.9048e+07  0.87%     -    0s
     0     0 5.9048e+07    0  178 5.9569e+07 5.9048e+07  0.87%     -    0s
     0     0 5.9054e+07    0  188 5.9569e+07 5.9054e+07  0.86%     -    0s
     0     0 5.9055e+07    0  203 5.9569e+07 5.9055e+07  0.86%     -    0s
     0     0 5.9055e+07    0  210 5.9569e+07 5.9055e+07  0.86%     -    0s
H    0     0                    5.948809e+07 5.9055e+07  0.73%     -    0s
     0     0 5.9083e+07    0  182 5.9488e+07 5.9083e+07  0.68%     -    0s
H    0     0                    5.948753e+07 5.9083e+07  0.68%     -    0s
     0     0 5.9087e+07    0  181 5.9488e+07 5.9087e+07  0.67%     -    0s
     0     0 5.9087e+07    0  181 5.9488e+07 5.9087e+07  0.67%     -    0s
     0     0 5.9094e+07    0  173 5.9488e+07 5.9094e+07  0.66%     -    0s
     0     0 5.9095e+07    0  197 5.9488e+07 5.9095e+07  0.66%     -    0s
     0     0 5.9097e+07    0  177 5.9488e+07 5.9097e+07  0.66%     -    0s
     0     0 5.9097e+07    0  173 5.9488e+07 5.9097e+07  0.66%     -    0s
     0     2 5.9097e+07    0  173 5.9488e+07 5.9097e+07  0.66%     -    0s
H   48    54                    5.947645e+07 5.9110e+07  0.62%  22.3    0s
H  225   245                    5.939670e+07 5.9110e+07  0.48%  12.9    0s
H 1051   830                    5.937356e+07 5.9117e+07  0.43%   7.6    1s
H 1060   794                    5.937163e+07 5.9156e+07  0.36%   7.5    2s
H 1071   762                    5.937149e+07 5.9204e+07  0.28%   8.8    3s
H 1071   724                    5.936182e+07 5.9204e+07  0.27%   8.8    3s
H 1085   697                    5.933615e+07 5.9232e+07  0.18%   8.6    4s
  1091   701 5.9336e+07  116  254 5.9336e+07 5.9236e+07  0.17%   8.6    5s
H 1095   668                    5.933602e+07 5.9236e+07  0.17%  10.0    5s
H 1149   669                    5.933158e+07 5.9258e+07  0.12%  12.6    7s
  3553   560     cutoff   50      5.9332e+07 5.9302e+07  0.05%  19.9   10s

Cutting planes:
  Gomory: 34
  MIR: 75
  StrongCG: 2
  Flow cover: 182

Explored 5137 nodes (100513 simplex iterations) in 11.68 seconds
Thread count was 8 (of 8 available processors)

Solution count 10: 5.93316e+07 5.9336e+07 5.93362e+07 ... 5.94875e+07

Optimal solution found (tolerance 1.00e-04)
Best objective 5.933157576978e+07, best bound 5.933157576978e+07, gap 0.0000%


Optimal value of objective function: 59331575.76978296
Best cost: 59331575.76978296

Lab: 0 	Type: 0 	Capacity = 800 	Tested = 900.0 	Samples overloaded = 100.0
Lab: 1 	Type: 0 	Capacity = 600 	Tested = 700.0 	Samples overloaded = 100.0
Lab: 2 	Type: 0 	Capacity = 200 	Tested = 300.0 	Samples overloaded = 100.0
Lab: 3 	Type: 0 	Capacity = 300 	Tested = 400.0 	Samples overloaded = 100.0
Lab: 4 	Type: 0 	Capacity = 500 	Tested = 600.0 	Samples overloaded = 100.0
Lab: 5 	Type: 0 	Capacity = 200 	Tested = 300.0 	Samples overloaded = 100.0
Lab: 6 	Type: 0 	Capacity = 600 	Tested = 700.0 	Samples overloaded = 100.0
Lab: 7 	Type: 0 	Capacity = 700 	Tested = 800.0 	Samples overloaded = 100.0
Lab: 8 	Type: 0 	Capacity = 400 	Tested = 500.0 	Samples overloaded = 100.0
Lab: 9 	Type: 0 	Capacity = 200 	Tested = 300.0 	Samples overloaded = 100.0
Lab: 10 	Type: 0 	Capacity = 300 	Tested = 400.0 	Samples overloaded = 100.0
Lab: 11 	Type: 1 	Capacity = 500 	Tested = 600.0 	Samples overloaded = 100.0
Lab: 12 	Type: 0 	Capacity = 500 	Tested = 600.0 	Samples overloaded = 100.0
Lab: 13 	Type: 0 	Capacity = 400 	Tested = 500.0 	Samples overloaded = 100.0
Lab: 14 	Type: 0 	Capacity = 800 	Tested = 900.0 	Samples overloaded = 100.0
Lab: 15 	Type: 0 	Capacity = 300 	Tested = 400.0 	Samples overloaded = 100.0
Lab: 16 	Type: 0 	Capacity = 200 	Tested = 300.0 	Samples overloaded = 100.0
Lab: 17 	Type: 0 	Capacity = 150 	Tested = 239.0 	Samples overloaded = 89.0
Lab: 18 	Type: 0 	Capacity = 200 	Tested = 300.0 	Samples overloaded = 100.0
Lab: 19 	Type: 0 	Capacity = 150 	Tested = 250.0 	Samples overloaded = 100.0
Lab: 20 	Type: 1 	Capacity = 500 	Tested = 500.0 	Samples overloaded = 0.0
Lab: 21 	Type: 1 	Capacity = 100 	Tested = 100.0 	Samples overloaded = 0.0
Lab: 22 	Type: 1 	Capacity = 500 	Tested = 500.0 	Samples overloaded = -0.0
Lab: 23 	Type: 1 	Capacity = 500 	Tested = 500.0 	Samples overloaded = -0.0
Lab: 24 	Type: 1 	Capacity = 300 	Tested = 300.0 	Samples overloaded = -0.0
Lab: 25 	Type: 1 	Capacity = 200 	Tested = 200.0 	Samples overloaded = -0.0
Lab: 26 	Type: 1 	Capacity = 90 	Tested = 90.0 	Samples overloaded = -0.0
Lab: 27 	Type: 1 	Capacity = 200 	Tested = 267.0 	Samples overloaded = 67.0
Lab: 28 	Type: 1 	Capacity = 500 	Tested = 500.0 	Samples overloaded = 0.0
Lab: 29 	Type: 1 	Capacity = 150 	Tested = 250.0 	Samples overloaded = 100.0
Lab: 30 	Type: 1 	Capacity = 500 	Tested = 500.0 	Samples overloaded = -0.0
Lab: 31 	Type: 1 	Capacity = 70 	Tested = 70.0 	Samples overloaded = -0.0
Lab: 32 	Type: 1 	Capacity = 700 	Tested = 800.0 	Samples overloaded = 100.0
Lab: 33 	Type: 1 	Capacity = 150 	Tested = 150.0 	Samples overloaded = -0.0
Lab: 34 	Type: 1 	Capacity = 200 	Tested = 200.0 	Samples overloaded = 0.0
Lab: 35 	Type: 1 	Capacity = 72 	Tested = 72.0 	Samples overloaded = -0.0
Lab: 36 	Type: 1 	Capacity = 200 	Tested = 200.0 	Samples overloaded = -0.0
Lab: 37 	Type: 1 	Capacity = 200 	Tested = 289.0 	Samples overloaded = 89.0
Lab: 38 	Type: 1 	Capacity = 140 	Tested = 140.0 	Samples overloaded = -0.0
Lab: 39 	Type: 1 	Capacity = 70 	Tested = 70.0 	Samples overloaded = -0.0
Lab: 40 	Type: 0 	Capacity = 200 	Tested = 300.0 	Samples overloaded = 100.0
Lab: 41 	Type: 0 	Capacity = 200 	Tested = 300.0 	Samples overloaded = 100.0
Lab: 42 	Type: 0 	Capacity = 36 	Tested = 123.0 	Samples overloaded = 87.0
Lab: 43 	Type: 0 	Capacity = 36 	Tested = 136.0 	Samples overloaded = 100.0
Lab: 44 	Type: 0 	Capacity = 200 	Tested = 300.0 	Samples overloaded = 100.0
Lab: 45 	Type: 0 	Capacity = 200 	Tested = 300.0 	Samples overloaded = 100.0
Lab: 46 	Type: 1 	Capacity = 200 	Tested = 200.0 	Samples overloaded = -0.0
Lab: 47 	Type: 1 	Capacity = 36 	Tested = 36.0 	Samples overloaded = -0.0
Lab: 48 	Type: 1 	Capacity = 36 	Tested = 36.0 	Samples overloaded = -0.0
Lab: 49 	Type: 1 	Capacity = 36 	Tested = 36.0 	Samples overloaded = -0.0
Lab: 50 	Type: 0 	Capacity = 36 	Tested = 136.0 	Samples overloaded = 100.0
Lab: 51 	Type: 0 	Capacity = 200 	Tested = 300.0 	Samples overloaded = 100.0
Lab: 52 	Type: 0 	Capacity = 300 	Tested = 400.0 	Samples overloaded = 100.0
Lab: 53 	Type: 0 	Capacity = 36 	Tested = 136.0 	Samples overloaded = 100.0
Lab: 54 	Type: 0 	Capacity = 36 	Tested = 136.0 	Samples overloaded = 100.0
Lab: 55 	Type: 0 	Capacity = 200 	Tested = 264.0 	Samples overloaded = 64.0
Lab: 56 	Type: 0 	Capacity = 36 	Tested = 136.0 	Samples overloaded = 100.0
Lab: 57 	Type: 0 	Capacity = 200 	Tested = 300.0 	Samples overloaded = 100.0
Lab: 58 	Type: 0 	Capacity = 36 	Tested = 136.0 	Samples overloaded = 100.0
Lab: 59 	Type: 0 	Capacity = 36 	Tested = 136.0 	Samples overloaded = 100.0
Lab: 60 	Type: 0 	Capacity = 36 	Tested = 136.0 	Samples overloaded = 100.0
Lab: 61 	Type: 0 	Capacity = 36 	Tested = 136.0 	Samples overloaded = 100.0
Lab: 62 	Type: 0 	Capacity = 200 	Tested = 300.0 	Samples overloaded = 100.0
Lab: 63 	Type: 0 	Capacity = 200 	Tested = 300.0 	Samples overloaded = 100.0
Lab: 64 	Type: 0 	Capacity = 600 	Tested = 700.0 	Samples overloaded = 100.0
Lab: 65 	Type: 0 	Capacity = 36 	Tested = 136.0 	Samples overloaded = 100.0
Lab: 66 	Type: 1 	Capacity = 300 	Tested = 400.0 	Samples overloaded = 100.0
Lab: 67 	Type: 0 	Capacity = 150 	Tested = 250.0 	Samples overloaded = 100.0
Lab: 68 	Type: 0 	Capacity = 200 	Tested = 300.0 	Samples overloaded = 100.0
Lab: 69 	Type: 1 	Capacity = 150 	Tested = 150.0 	Samples overloaded = -0.0
Lab: 70 	Type: 1 	Capacity = 150 	Tested = 150.0 	Samples overloaded = -0.0
Lab: 71 	Type: 1 	Capacity = 36 	Tested = 36.0 	Samples overloaded = -0.0
Lab: 72 	Type: 1 	Capacity = 36 	Tested = 36.0 	Samples overloaded = -0.0
Lab: 73 	Type: 0 	Capacity = 36 	Tested = 136.0 	Samples overloaded = 100.0
Lab: 74 	Type: 1 	Capacity = 36 	Tested = 136.0 	Samples overloaded = 100.0
Lab: 75 	Type: 1 	Capacity = 36 	Tested = 100.0 	Samples overloaded = 64.0
Lab: 76 	Type: 1 	Capacity = 500 	Tested = 600.0 	Samples overloaded = 100.0
Lab: 77 	Type: 0 	Capacity = 300 	Tested = 400.0 	Samples overloaded = 100.0
Lab: 78 	Type: 1 	Capacity = 200 	Tested = 203.0 	Samples overloaded = 3.0
Lab: 79 	Type: 0 	Capacity = 200 	Tested = 225.0 	Samples overloaded = 25.0
Lab: 80 	Type: 1 	Capacity = 30 	Tested = 30.0 	Samples overloaded = -0.0
Lab: 81 	Type: 1 	Capacity = 250 	Tested = 350.0 	Samples overloaded = 100.0
Lab: 82 	Type: 1 	Capacity = 500 	Tested = 592.0 	Samples overloaded = 92.0
Lab: 83 	Type: 1 	Capacity = 200 	Tested = 200.0 	Samples overloaded = -0.0
Lab: 84 	Type: 1 	Capacity = 500 	Tested = 600.0 	Samples overloaded = 100.0
Lab: 85 	Type: 1 	Capacity = 150 	Tested = 250.0 	Samples overloaded = 100.0

District headquater 0 	 distributed 259.0 	samples out of 525
District headquater 1 	 distributed 600.0 	samples out of 600
District headquater 2 	 distributed 500.0 	samples out of 750
District headquater 3 	 distributed 0 	samples out of 900
District headquater 4 	 distributed 10214.0 	samples out of 10500
District headquater 5 	 distributed 700.0 	samples out of 900
District headquater 6 	 distributed 225.0 	samples out of 225
District headquater 7 	 distributed 236.0 	samples out of 525
District headquater 8 	 distributed 136.0 	samples out of 300
District headquater 9 	 distributed 136.0 	samples out of 525
District headquater 10 	 distributed 1200.0 	samples out of 1200
District headquater 11 	 distributed 750.0 	samples out of 750
District headquater 12 	 distributed 675.0 	samples out of 675
District headquater 13 	 distributed 250.0 	samples out of 375
District headquater 14 	 distributed 436.0 	samples out of 450
BACKLOG at district 14 = 14.0  with demand =  450
District headquater 15 	 distributed 225.0 	samples out of 225
District headquater 16 	 distributed 650.0 	samples out of 750
District headquater 17 	 distributed 300.0 	samples out of 300
District headquater 18 	 distributed 450.0 	samples out of 450
District headquater 19 	 distributed 150.0 	samples out of 450
District headquater 20 	 distributed 300.0 	samples out of 300
District headquater 21 	 distributed 450.0 	samples out of 600
District headquater 22 	 distributed 300.0 	samples out of 300
District headquater 23 	 distributed 300.0 	samples out of 300
District headquater 24 	 distributed 600.0 	samples out of 600
District headquater 25 	 distributed 300.0 	samples out of 750
District headquater 26 	 distributed 1011.0 	samples out of 1050
District headquater 27 	 distributed 300.0 	samples out of 525
District headquater 28 	 distributed 123.0 	samples out of 300
District headquater 29 	 distributed 300.0 	samples out of 300



Disrict 0 	 has sent 266.0 	 samples to external lab 13 	(type:  0 district:  1 )	 with distance = 125.57920682233862
Disrict 2 	 has sent 250.0 	 samples to external lab 52 	(type:  0 district:  19 )	 with distance = 82.96620785913657
Disrict 3 	 has sent 700.0 	 samples to external lab 7 	(type:  0 district:  4 )	 with distance = 45.08484777263526
Disrict 3 	 has sent 200.0 	 samples to external lab 51 	(type:  0 district:  7 )	 with distance = 17.31323028124495
Disrict 4 	 has sent 150.0 	 samples to external lab 46 	(type:  1 district:  21 )	 with distance = 7.903291461056959
Disrict 4 	 has sent 136.0 	 samples to external lab 62 	(type:  0 district:  23 )	 with distance = 43.15864805211687
Disrict 5 	 has sent 200.0 	 samples to external lab 6 	(type:  0 district:  16 )	 with distance = 96.40915901155631
Disrict 7 	 has sent 289.0 	 samples to external lab 66 	(type:  1 district:  18 )	 with distance = 55.36012677255046
Disrict 8 	 has sent 164.0 	 samples to external lab 4 	(type:  0 district:  14 )	 with distance = 49.193129648266336
Disrict 9 	 has sent 189.0 	 samples to external lab 37 	(type:  1 district:  11 )	 with distance = 58.4459948899207
Disrict 9 	 has sent 200.0 	 samples to external lab 83 	(type:  1 district:  20 )	 with distance = 143.3517847531121
Disrict 13 	 has sent 125.0 	 samples to external lab 12 	(type:  0 district:  12 )	 with distance = 68.58950892285858
Disrict 16 	 has sent 100.0 	 samples to external lab 55 	(type:  0 district:  29 )	 with distance = 72.1963882910424
Disrict 19 	 has sent 300.0 	 samples to external lab 10 	(type:  0 district:  12 )	 with distance = 109.67429198018057
Disrict 21 	 has sent 150.0 	 samples to external lab 17 	(type:  0 district:  6 )	 with distance = 52.75710044840708
Disrict 25 	 has sent 450.0 	 samples to external lab 30 	(type:  1 district:  4 )	 with distance = 56.092627779781694
Disrict 26 	 has sent 39.0 	 samples to external lab 85 	(type:  1 district:  10 )	 with distance = 48.40984857311188
Disrict 27 	 has sent 225.0 	 samples to external lab 32 	(type:  1 district:  26 )	 with distance = 125.4936956151422
Disrict 28 	 has sent 177.0 	 samples to external lab 44 	(type:  0 district:  0 )	 with distance = 73.5966808484872



At centroid 0 	 incoming = 0.0 	 outgoing = 0.0 	 capacity= 800 	in district 4
At centroid 1 	 incoming = 0.0 	 outgoing = 0.0 	 capacity= 600 	in district 4
At centroid 2 	 incoming = 0.0 	 outgoing = 0.0 	 capacity= 200 	in district 4
At centroid 3 	 incoming = 0.0 	 outgoing = 0.0 	 capacity= 300 	in district 21
At centroid 4 	 incoming = 164.0 	 outgoing = 164.0 	 capacity= 500 	in district 14
At centroid 5 	 incoming = 0.0 	 outgoing = 0.0 	 capacity= 200 	in district 24
At centroid 6 	 incoming = 200.0 	 outgoing = 200.0 	 capacity= 600 	in district 16
At centroid 7 	 incoming = 700.0 	 outgoing = 700.0 	 capacity= 700 	in district 4
At centroid 8 	 incoming = 0.0 	 outgoing = 0.0 	 capacity= 400 	in district 2
At centroid 9 	 incoming = 0.0 	 outgoing = 0.0 	 capacity= 200 	in district 10
At centroid 10 	 incoming = 300.0 	 outgoing = 300.0 	 capacity= 300 	in district 12
At centroid 11 	 incoming = 0.0 	 outgoing = 0.0 	 capacity= 500 	in district 4
At centroid 12 	 incoming = 125.0 	 outgoing = 125.0 	 capacity= 500 	in district 12
At centroid 13 	 incoming = 266.0 	 outgoing = 266.0 	 capacity= 400 	in district 1
At centroid 14 	 incoming = 0.0 	 outgoing = 0.0 	 capacity= 800 	in district 4
At centroid 15 	 incoming = 0.0 	 outgoing = 0.0 	 capacity= 300 	in district 4
At centroid 16 	 incoming = 0.0 	 outgoing = 0.0 	 capacity= 200 	in district 20
At centroid 17 	 incoming = 150.0 	 outgoing = 150.0 	 capacity= 150 	in district 6
At centroid 18 	 incoming = 0.0 	 outgoing = 0.0 	 capacity= 200 	in district 24
At centroid 19 	 incoming = 0.0 	 outgoing = 0.0 	 capacity= 150 	in district 13
At centroid 20 	 incoming = 0.0 	 outgoing = 0.0 	 capacity= 500 	in district 4
At centroid 21 	 incoming = 0.0 	 outgoing = 0.0 	 capacity= 100 	in district 4
At centroid 22 	 incoming = 0.0 	 outgoing = 0.0 	 capacity= 500 	in district 4
At centroid 23 	 incoming = 0.0 	 outgoing = 0.0 	 capacity= 500 	in district 4
At centroid 24 	 incoming = 0.0 	 outgoing = 0.0 	 capacity= 300 	in district 4
At centroid 25 	 incoming = 0.0 	 outgoing = 0.0 	 capacity= 200 	in district 4
At centroid 26 	 incoming = 0.0 	 outgoing = 0.0 	 capacity= 90 	in district 4
At centroid 27 	 incoming = 0.0 	 outgoing = 0.0 	 capacity= 200 	in district 10
At centroid 28 	 incoming = 0.0 	 outgoing = 0.0 	 capacity= 500 	in district 4
At centroid 29 	 incoming = 0.0 	 outgoing = 0.0 	 capacity= 150 	in district 11
At centroid 30 	 incoming = 450.0 	 outgoing = 450.0 	 capacity= 500 	in district 4
At centroid 31 	 incoming = 0.0 	 outgoing = 0.0 	 capacity= 70 	in district 4
At centroid 32 	 incoming = 225.0 	 outgoing = 225.0 	 capacity= 700 	in district 26
At centroid 33 	 incoming = 0.0 	 outgoing = 0.0 	 capacity= 150 	in district 10
At centroid 34 	 incoming = 0.0 	 outgoing = 0.0 	 capacity= 200 	in district 4
At centroid 35 	 incoming = 0.0 	 outgoing = 0.0 	 capacity= 72 	in district 10
At centroid 36 	 incoming = 0.0 	 outgoing = 0.0 	 capacity= 200 	in district 10
At centroid 37 	 incoming = 189.0 	 outgoing = 189.0 	 capacity= 200 	in district 11
At centroid 38 	 incoming = 0.0 	 outgoing = 0.0 	 capacity= 140 	in district 4
At centroid 39 	 incoming = 0.0 	 outgoing = 0.0 	 capacity= 70 	in district 4
At centroid 40 	 incoming = 0.0 	 outgoing = 0.0 	 capacity= 200 	in district 25
At centroid 41 	 incoming = 0.0 	 outgoing = 0.0 	 capacity= 200 	in district 1
At centroid 42 	 incoming = 0.0 	 outgoing = 0.0 	 capacity= 36 	in district 28
At centroid 43 	 incoming = 0.0 	 outgoing = 0.0 	 capacity= 36 	in district 0
At centroid 44 	 incoming = 177.0 	 outgoing = 177.0 	 capacity= 200 	in district 0
At centroid 45 	 incoming = 0.0 	 outgoing = 0.0 	 capacity= 200 	in district 27
At centroid 46 	 incoming = 150.0 	 outgoing = 150.0 	 capacity= 200 	in district 21
At centroid 47 	 incoming = 0.0 	 outgoing = 0.0 	 capacity= 36 	in district 1
At centroid 48 	 incoming = 0.0 	 outgoing = 0.0 	 capacity= 36 	in district 4
At centroid 49 	 incoming = 0.0 	 outgoing = 0.0 	 capacity= 36 	in district 4
At centroid 50 	 incoming = 0.0 	 outgoing = 0.0 	 capacity= 36 	in district 7
At centroid 51 	 incoming = 200.0 	 outgoing = 200.0 	 capacity= 200 	in district 7
At centroid 52 	 incoming = 250.0 	 outgoing = 250.0 	 capacity= 300 	in district 19
At centroid 53 	 incoming = 0.0 	 outgoing = 0.0 	 capacity= 36 	in district 8
At centroid 54 	 incoming = 0.0 	 outgoing = 0.0 	 capacity= 36 	in district 29
At centroid 55 	 incoming = 100.0 	 outgoing = 100.0 	 capacity= 200 	in district 29
At centroid 56 	 incoming = 0.0 	 outgoing = 0.0 	 capacity= 36 	in district 26
At centroid 57 	 incoming = 0.0 	 outgoing = 0.0 	 capacity= 200 	in district 26
At centroid 58 	 incoming = 0.0 	 outgoing = 0.0 	 capacity= 36 	in district 9
At centroid 59 	 incoming = 0.0 	 outgoing = 0.0 	 capacity= 36 	in district 4
At centroid 60 	 incoming = 0.0 	 outgoing = 0.0 	 capacity= 36 	in district 6
At centroid 61 	 incoming = 0.0 	 outgoing = 0.0 	 capacity= 36 	in district 23
At centroid 62 	 incoming = 136.0 	 outgoing = 136.0 	 capacity= 200 	in district 23
At centroid 63 	 incoming = 0.0 	 outgoing = 0.0 	 capacity= 200 	in district 22
At centroid 64 	 incoming = 0.0 	 outgoing = 0.0 	 capacity= 600 	in district 5
At centroid 65 	 incoming = 0.0 	 outgoing = 0.0 	 capacity= 36 	in district 18
At centroid 66 	 incoming = 289.0 	 outgoing = 289.0 	 capacity= 300 	in district 18
At centroid 67 	 incoming = 0.0 	 outgoing = 0.0 	 capacity= 150 	in district 4
At centroid 68 	 incoming = 0.0 	 outgoing = 0.0 	 capacity= 200 	in district 17
At centroid 69 	 incoming = 0.0 	 outgoing = 0.0 	 capacity= 150 	in district 4
At centroid 70 	 incoming = 0.0 	 outgoing = 0.0 	 capacity= 150 	in district 16
At centroid 71 	 incoming = 0.0 	 outgoing = 0.0 	 capacity= 36 	in district 4
At centroid 72 	 incoming = 0.0 	 outgoing = 0.0 	 capacity= 36 	in district 4
At centroid 73 	 incoming = 0.0 	 outgoing = 0.0 	 capacity= 36 	in district 4
At centroid 74 	 incoming = 0.0 	 outgoing = 0.0 	 capacity= 36 	in district 4
At centroid 75 	 incoming = 0.0 	 outgoing = 0.0 	 capacity= 36 	in district 12
At centroid 76 	 incoming = 0.0 	 outgoing = 0.0 	 capacity= 500 	in district 4
At centroid 77 	 incoming = 0.0 	 outgoing = 0.0 	 capacity= 300 	in district 11
At centroid 78 	 incoming = 0.0 	 outgoing = 0.0 	 capacity= 200 	in district 18
At centroid 79 	 incoming = 0.0 	 outgoing = 0.0 	 capacity= 200 	in district 15
At centroid 80 	 incoming = 0.0 	 outgoing = 0.0 	 capacity= 30 	in district 1
At centroid 81 	 incoming = 0.0 	 outgoing = 0.0 	 capacity= 250 	in district 4
At centroid 82 	 incoming = 0.0 	 outgoing = 0.0 	 capacity= 500 	in district 4
At centroid 83 	 incoming = 200.0 	 outgoing = 200.0 	 capacity= 200 	in district 20
At centroid 84 	 incoming = 0.0 	 outgoing = 0.0 	 capacity= 500 	in district 4
At centroid 85 	 incoming = 39.0 	 outgoing = 39.0 	 capacity= 150 	in district 10

Total Government Capacity = 11482 
Total private labs' capacity = 9224
